[768, 795, 782, 746, 763, 774, 770, 764, 764, 754, 1533, 1527, 1547, 1550, 1564, 1493, 1518, 1526, 1530, 1553, 3053, 3057, 3047, 3064, 3047, 3118, 3047, 3106, 3073, 3089, 6165, 6191, 6147, 6139, 6217, 6175, 6168, 6128, 6145, 6134, 12256, 12269, 12304, 12238, 12266, 12252, 12313, 12288, 12331, 12255]
